************************************************************************
file with basedata            : n/a
initial value random generator: n/a
************************************************************************
projects                      :  1
jobs (incl. supersource/sink ):  32
horizon                       :  160
RESOURCES
  - renewable                 :  4   R
  - nonrenewable              :  0   N
  - doubly constrained        :  0   D
************************************************************************
PROJECT INFORMATION:
pronr.  #jobs rel.date duedate tardcost  MPM-Time
    1     30      0       54        2       54
************************************************************************
PRECEDENCE RELATIONS:
jobnr.    #modes  #successors   successors
   1        1          3           2   3   4
   2        1          3          14  21  25
   3        1          1          16
   4        1          3           5   6   8
   5        1          3           7  11  13
   6        1          1          18
   7        1          2          10  12
   8        1          2           9  27
   9        1          1          25
  10        1          1          15
  11        1          1          17
  12        1          3          14  18  31
  13        1          1          20
  14        1          1          29
  15        1          1          28
  16        1          3          18  25  30
  17        1          3          19  22  23
  18        1          1          29
  19        1          2          21  30
  20        1          1          29
  21        1          1          27
  22        1          1          26
  23        1          1          24
  24        1          1          26
  25        1          1          31
  26        1          1          27
  27        1          1          28
  28        1          1          31
  29        1          1          32
  30        1          1          32
  31        1          1          32
  32        1          0        
************************************************************************
REQUESTS/DURATIONS:
jobnr. mode duration  R 1  R 2  R 3  R 4
------------------------------------------------------------------------
  1      1     0    
  2      1     8       1   1   1   1   1   1   1   1
                       3   3   3   3   3   3   3   3
                       1   1   1   1   1   1   1   1
                      10  10  10  10  10  10  10  10
  3      1     6       3   6   6   6   6   6
                       5   9   9   9   9   9
                       1   2   2   2   2   2
                       1   1   1   1   1   1
  4      1     6       4   4   4   4   4   4
                       7   7   7   7   7   7
                       9   9   9   9   9   9
                       7   7   7   7   7   7
  5      1     5       4   4   4   4   4
                       1   1   1   1   1
                       1   1   1   1   1
                      10  10  10  10  10
  6      1     9       4   7   4   7   7   7   7   7   7
                       5  10   5  10  10  10  10  10  10
                       5   9   5   9   9   9   9   9   9
                       2   3   2   3   3   3   3   3   3
  7      1     5       4   4   4   2   4
                       8   8   8   4   8
                       2   2   2   1   2
                       9   9   9   5   9
  8      1     7       8   8   8   8   8   8   8
                       4   4   4   4   4   4   4
                       9   9   9   9   9   9   9
                       5   5   5   5   5   5   5
  9      1     3       3   2   3
                       2   1   2
                       4   2   4
                       4   2   4
 10      1     1       7
                       6
                       1
                       7
 11      1     6       5   5   5   5   5   5
                       5   5   5   5   5   5
                       5   5   5   5   5   5
                       8   8   8   8   8   8
 12      1     6       5   5   5   5   3   5
                       6   6   6   6   3   6
                       8   8   8   8   4   8
                       9   9   9   9   5   9
 13      1     8       1   1   1   1   1   1   1   1
                       5   5   5   5   5   5   5   5
                       2   2   2   2   2   2   2   2
                       7   7   7   7   7   7   7   7
 14      1     2       2   4
                       2   4
                       3   6
                       1   1
 15      1     2       7   7
                      10  10
                       9   9
                       4   4
 16      1     2       7   7
                       8   8
                      10  10
                       9   9
 17      1     4       9   9   9   9
                       5   5   5   5
                      10  10  10  10
                       3   3   3   3
 18      1     2       8   8
                       9   9
                       5   5
                       4   4
 19      1     9       3   3   3   3   3   3   3   3   3
                       7   7   7   7   7   7   7   7   7
                       4   4   4   4   4   4   4   4   4
                       4   4   4   4   4   4   4   4   4
 20      1     6       5   3   5   5   5   3
                       3   2   3   3   3   2
                       5   3   5   5   5   3
                       8   4   8   8   8   4
 21      1     6       2   2   2   2   2   2
                       1   1   1   1   1   1
                       2   2   2   2   2   2
                      10  10  10  10  10  10
 22      1     8       1   1   1   1   1   1   1   1
                       4   4   4   2   4   4   4   2
                       3   3   3   2   3   3   3   2
                       2   2   2   1   2   2   2   1
 23      1     5       3   3   3   3   3
                       5   5   5   5   5
                       5   5   5   5   5
                       7   7   7   7   7
 24      1     1       9
                       5
                       9
                       3
 25      1     4       7   7   4   7
                       8   8   4   8
                       2   2   1   2
                      10  10   5  10
 26      1    10       4   4   2   4   4   4   4   4   4   4
                       2   2   1   2   2   2   2   2   2   2
                       9   9   5   9   9   9   9   9   9   9
                       2   2   1   2   2   2   2   2   2   2
 27      1     5       1   1   1   1   1
                       9   9   9   9   9
                       6   6   6   6   6
                       7   7   7   7   7
 28      1     2      10  10
                       6   6
                       2   2
                       3   3
 29      1     6       2   1   2   2   1   2
                       7   4   7   7   4   7
                       3   2   3   3   2   3
                      10   5  10  10   5  10
 30      1     8       8   8   8   8   8   8   8   8
                       3   3   3   3   3   3   3   3
                       6   6   6   6   6   6   6   6
                       7   7   7   7   7   7   7   7
 31      1     8       3   3   3   3   3   3   3   3
                       1   1   1   1   1   1   1   1
                       6   6   6   6   6   6   6   6
                       9   9   9   9   9   9   9   9
 32      1     0    
************************************************************************
RESOURCEAVAILABILITIES:
  R 1  R 2  R 3  R 4

  23  23  23  23  12  23  23  23  23  23  23  12  23  23  23  23  23  23  23  23  23  23  23  23  23  23  23  12  23  23  23  23  23  23  23  23  23  12  23  23  23  12  23  23  23  23  23  23  23  23  23  23  12  23  23  23  23  23  23  23  23  23  23  23  23  23  23  23  12  23  23  23  23  12  23  23  23  23  23  23  23  23  23  23  23  23  12  12  23  23  23  23  23  23  23  12  23  23  23  23  23  23  23  23  23  23  23  23  23  23  23  12  23  12  23  23  23  23  23  23  23  23  23  23  23  23  23  23  12  23  23  23  23  23  23  12  12  23  23  23  12  23  23  23  23  23  23  23  23  23  23  23  23  23  23  23  12  23  23  23

  27  27  27  27  14  27  27  27  27  27  27  14  27  27  27  27  27  27  27  27  27  27  27  27  27  27  27  14  27  27  27  27  27  27  27  27  27  14  27  27  27  14  27  27  27  27  27  27  27  27  27  27  14  27  27  27  27  27  27  27  27  27  27  27  27  27  27  27  14  27  27  27  27  14  27  27  27  27  27  27  27  27  27  27  27  27  14  14  27  27  27  27  27  27  27  14  27  27  27  27  27  27  27  27  27  27  27  27  27  27  27  14  27  14  27  27  27  27  27  27  27  27  27  27  27  27  27  27  14  27  27  27  27  27  27  14  14  27  27  27  14  27  27  27  27  27  27  27  27  27  27  27  27  27  27  27  14  27  27  27

  25  25  25  25  13  25  25  25  25  25  25  13  25  25  25  25  25  25  25  25  25  25  25  25  25  25  25  13  25  25  25  25  25  25  25  25  25  13  25  25  25  13  25  25  25  25  25  25  25  25  25  25  13  25  25  25  25  25  25  25  25  25  25  25  25  25  25  25  13  25  25  25  25  13  25  25  25  25  25  25  25  25  25  25  25  25  13  13  25  25  25  25  25  25  25  13  25  25  25  25  25  25  25  25  25  25  25  25  25  25  25  13  25  13  25  25  25  25  25  25  25  25  25  25  25  25  25  25  13  25  25  25  25  25  25  13  13  25  25  25  13  25  25  25  25  25  25  25  25  25  25  25  25  25  25  25  13  25  25  25

  32  32  32  32  16  32  32  32  32  32  32  16  32  32  32  32  32  32  32  32  32  32  32  32  32  32  32  16  32  32  32  32  32  32  32  32  32  16  32  32  32  16  32  32  32  32  32  32  32  32  32  32  16  32  32  32  32  32  32  32  32  32  32  32  32  32  32  32  16  32  32  32  32  16  32  32  32  32  32  32  32  32  32  32  32  32  16  16  32  32  32  32  32  32  32  16  32  32  32  32  32  32  32  32  32  32  32  32  32  32  32  16  32  16  32  32  32  32  32  32  32  32  32  32  32  32  32  32  16  32  32  32  32  32  32  16  16  32  32  32  16  32  32  32  32  32  32  32  32  32  32  32  32  32  32  32  16  32  32  32

************************************************************************
